Data path: /scratch/opt/lxu/CFLG/benchmarks/random_B
Instance: r_40_0.1_84.txt
Result path: /scratch/opt/lxu/CFLG/results/random_B
Solver: Gurobi
Time limit: 7200
Formulation: LEFPAD
Cover: Large
julia --project=. src/main.jl /scratch/opt/lxu/CFLG/benchmarks/random_B r_40_0.1_84.txt /scratch/opt/lxu/CFLG/results/random_B Gurobi 7200 LEFPAD Large
The latest version of Julia in the `release` channel is 1.11.5+0.x64.linux.gnu. You currently have `1.11.4+0.x64.linux.gnu` installed. Run:

  juliaup update

in your terminal shell to install Julia 1.11.5+0.x64.linux.gnu and update the `release` channel to that version.
/scratch/opt/lxu/CFLG/benchmarks/random_B Gurobi 7200.0 /scratch/opt/lxu/CFLG/results/random_B r_40_0.1_84.txt LEFPAD Large
/scratch/opt/lxu/CFLG/benchmarks/random_B/r_40_0.1_84.txt

 read graph
data loaded

problem_graph/original graph: node: 40/40 edge: 84/84 dlt: 1.2137849027573164 break_avg_len: 0.6068924513786582 break_max_len: 0.9739273588152333Vbar/V, Ebar/E(37, 40, 81, 84)
(1, 8)(1, 27)(1, 30)(2, 4)(2, 19)(3, 10)(3, 17)(3, 22)(3, 30)(3, 35)(4, 6)(4, 9)(4, 13)(4, 18)(4, 29)(4, 30)(4, 40)(6, 20)(6, 25)(7, 8)(7, 10)(7, 23)(7, 28)(7, 38)(8, 13)(8, 27)(9, 20)(9, 24)(9, 31)(9, 34)(10, 23)(10, 40)(11, 21)(11, 26)(12, 16)(12, 20)(12, 27)(12, 33)(12, 34)(13, 17)(13, 19)(13, 28)(14, 21)(14, 30)(14, 38)(15, 19)(15, 20)(15, 22)(15, 27)(15, 28)(15, 29)(16, 26)(17, 19)(18, 29)(18, 33)(18, 38)(19, 28)(19, 34)(19, 39)(20, 24)(20, 26)(20, 27)(20, 30)(21, 25)(21, 26)(21, 35)(22, 30)(23, 29)(24, 37)(25, 28)(27, 40)(28, 34)(28, 38)(29, 39)(30, 33)(30, 35)(31, 33)(31, 37)(33, 38)(33, 40)(34, 40)(Dict(13 => 0.0, 15 => 0.0, 25 => 0.0), [13, 25, 15], 40, 84)Set parameter TokenServer to value "solice01.zib.de"
Set parameter Threads to value 1
Set parameter OutputFlag to value 1
Gurobi Optimizer version 12.0.1 build v12.0.1rc0 (linux64 - "Debian GNU/Linux 12 (bookworm)")

CPU model: Intel(R) Xeon(R) Gold 5122 CPU @ 3.60GHz, instruction set [SSE2|AVX|AVX2|AVX512]
Thread count: 8 physical cores, 16 logical processors, using up to 1 threads

Non-default parameters:
Threads  1

Optimize a model with 124 rows, 252 columns and 420 nonzeros
Model fingerprint: 0xc1cb9b1b
Coefficient statistics:
  Matrix range     [1e+00, 1e+00]
  Objective range  [1e+00, 1e+00]
  Bounds range     [1e+00, 1e+00]
  RHS range        [1e+00, 1e+00]
Presolve removed 124 rows and 252 columns
Presolve time: 0.00s
Presolve: All rows and columns removed
Iteration    Objective       Primal Inf.    Dual Inf.      Time
       0    3.0000000e+00   0.000000e+00   0.000000e+00      0s

Solved in 0 iterations and 0.01 seconds (0.00 work units)
Optimal objective  3.000000000e+00

User-callback calls 35, time in user-callback 0.00 sec
elapsed CPU time: 1.730079 seconds
Set parameter TokenServer to value "solice01.zib.de"
Set parameter Threads to value 1
Set parameter OutputFlag to value 1
Set parameter MIPGap to value 0.0001
Set parameter MIPGapAbs to value 0.999998
Set parameter TimeLimit to value 7198.269921

 more cuts: false 1.2137849027573164 false
is_attach:trueformulation:LEFPAD0 84 0

 model loaded

Gurobi Optimizer version 12.0.1 build v12.0.1rc0 (linux64 - "Debian GNU/Linux 12 (bookworm)")

CPU model: Intel(R) Xeon(R) Gold 5122 CPU @ 3.60GHz, instruction set [SSE2|AVX|AVX2|AVX512]
Thread count: 8 physical cores, 16 logical processors, using up to 1 threads

Non-default parameters:
TimeLimit  7198.269921
MIPGapAbs  0.999998
Threads  1

Optimize a model with 8922 rows, 5838 columns and 26339 nonzeros
Model fingerprint: 0x91fbeffc
Variable types: 2899 continuous, 2939 integer (2939 binary)
Coefficient statistics:
  Matrix range     [4e-04, 1e+00]
  Objective range  [1e+00, 1e+00]
  Bounds range     [3e-01, 1e+00]
  RHS range        [1e-06, 1e+00]
Presolve removed 2621 rows and 770 columns
Presolve time: 0.11s
Presolved: 6301 rows, 5068 columns, 21799 nonzeros
Variable types: 2519 continuous, 2549 integer (2549 binary)
Found heuristic solution: objective 81.0000000
Found heuristic solution: objective 80.0000000

Root relaxation: objective 1.669551e+00, 4370 iterations, 0.14 seconds (0.25 work units)

    Nodes    |    Current Node    |     Objective Bounds      |     Work
 Expl Unexpl |  Obj  Depth IntInf | Incumbent    BestBd   Gap | It/Node Time

     0     0    1.66955    0  172   80.00000    1.66955  97.9%     -    0s
     0     0    1.67061    0  171   80.00000    1.67061  97.9%     -    0s
H    0     0                      34.0000000    1.67061  95.1%     -    0s
H    0     0                      33.0000000    1.67061  94.9%     -    0s
H    0     0                      24.0000000    1.67061  93.0%     -    0s
     0     0    2.20443    0  216   24.00000    2.20443  90.8%     -    0s
     0     0    2.22342    0  238   24.00000    2.22342  90.7%     -    0s
     0     0    2.23141    0  162   24.00000    2.23141  90.7%     -    0s
H    0     0                      19.0000000    2.23875  88.2%     -    0s
     0     0    2.23875    0  162   19.00000    2.23875  88.2%     -    0s
     0     0    2.42995    0  273   19.00000    2.42995  87.2%     -    0s
     0     0    2.45579    0  228   19.00000    2.45579  87.1%     -    0s
     0     0    2.45635    0  226   19.00000    2.45635  87.1%     -    0s
     0     0    2.46453    0  250   19.00000    2.46453  87.0%     -    0s
     0     0    2.46453    0  220   19.00000    2.46453  87.0%     -    0s
     0     0    2.46453    0  219   19.00000    2.46453  87.0%     -    0s
     0     0    2.62851    0  233   19.00000    2.62851  86.2%     -    1s
     0     0    2.63764    0  255   19.00000    2.63764  86.1%     -    1s
     0     0    2.63764    0  272   19.00000    2.63764  86.1%     -    1s
     0     0    2.63764    0  272   19.00000    2.63764  86.1%     -    1s
     0     0    2.73234    0  298   19.00000    2.73234  85.6%     -    1s
H    0     0                      18.0000000    2.74153  84.8%     -    1s
H    0     0                      17.0000000    2.74153  83.9%     -    1s
     0     0    2.77829    0  248   17.00000    2.77829  83.7%     -    1s
     0     0    2.78325    0  273   17.00000    2.78325  83.6%     -    1s
     0     0    2.78546    0  288   17.00000    2.78546  83.6%     -    1s
     0     0    2.78560    0  291   17.00000    2.78560  83.6%     -    1s
     0     0    2.79314    0  249   17.00000    2.79314  83.6%     -    1s
     0     0    2.79314    0  251   17.00000    2.79314  83.6%     -    1s
H    0     0                      15.0000000    2.79564  81.4%     -    1s
H    0     0                      14.0000000    2.79564  80.0%     -    1s
H    0     0                      13.0000000    2.79564  78.5%     -    1s
     0     0    2.80164    0  292   13.00000    2.80164  78.4%     -    1s
     0     0    2.80333    0  279   13.00000    2.80333  78.4%     -    1s
     0     0    2.80753    0  254   13.00000    2.80753  78.4%     -    1s
     0     0    2.80814    0  256   13.00000    2.80814  78.4%     -    1s
     0     0    2.80814    0  256   13.00000    2.80814  78.4%     -    1s
     0     0    2.81232    0  318   13.00000    2.81232  78.4%     -    1s
H    0     0                      11.0000000    2.81321  74.4%     -    1s
     0     0    2.81321    0  334   11.00000    2.81321  74.4%     -    1s
     0     0    2.81371    0  332   11.00000    2.81371  74.4%     -    1s
     0     0    2.81437    0  329   11.00000    2.81437  74.4%     -    1s
     0     0    2.81467    0  328   11.00000    2.81467  74.4%     -    1s
     0     0    2.83159    0  314   11.00000    2.83159  74.3%     -    1s
     0     0    2.83159    0  319   11.00000    2.83159  74.3%     -    1s
     0     0    2.83222    0  320   11.00000    2.83222  74.3%     -    1s
     0     0    2.84418    0  314   11.00000    2.84418  74.1%     -    2s
H    0     0                      10.0000000    2.84682  71.5%     -    2s
     0     0    2.85024    0  292   10.00000    2.85024  71.5%     -    2s
     0     0    2.85210    0  317   10.00000    2.85210  71.5%     -    2s
     0     0    2.85224    0  317   10.00000    2.85224  71.5%     -    2s
     0     0    2.85329    0  340   10.00000    2.85329  71.5%     -    2s
H    0     0                       9.0000000    2.85603  68.3%     -    2s
     0     0    2.85603    0  326    9.00000    2.85603  68.3%     -    2s
     0     0    2.85603    0  348    9.00000    2.85603  68.3%     -    2s
     0     0    2.85729    0  336    9.00000    2.85729  68.3%     -    2s
H    0     0                       8.0000000    2.85795  64.3%     -    2s
H    0     0                       7.0000000    2.85795  59.2%     -    2s
     0     0    2.85795    0  353    7.00000    2.85795  59.2%     -    2s
     0     0    2.85795    0  382    7.00000    2.85795  59.2%     -    2s
     0     0    2.85795    0  302    7.00000    2.85795  59.2%     -    2s
     0     2    2.87195    0  299    7.00000    2.87195  59.0%     -    3s
   139   132    5.20003   35   56    7.00000    2.90558  58.5%   166    5s
   562   482    4.95901   47  128    7.00000    3.16358  54.8%   140   10s
   575   491    5.56271   56  310    7.00000    3.49673  50.0%   137   15s
   588   500    4.11791   25  329    7.00000    3.52739  49.6%   134   20s
   610   516    4.13855   21  199    7.00000    3.59301  48.7%   232   25s
H  688   512                       6.0000000    3.59301  40.1%   250   29s
   697   511    3.93387   19  273    6.00000    3.79412  36.8%   254   30s
   891   482    4.59934   35  118    6.00000    4.04268  32.6%   252   35s
  1157   456    4.16079   26  132    6.00000    4.16079  30.7%   234   40s
  1387   433    4.62417   37  173    6.00000    4.25475  29.1%   225   45s
  1659   365    4.53571   19  209    6.00000    4.42308  26.3%   221   50s
  1920   285    4.50000   19  134    6.00000    4.50000  25.0%   223   55s
  2186   258     cutoff   40         6.00000    4.52704  24.5%   219   60s
  2502   222    4.88613   35  163    6.00000    4.64968  22.5%   215   65s
  2891   163    5.00000   35   72    6.00000    5.00000  16.7%   210   70s
  3514   146    5.00000   32  103    6.00000    5.00000  16.7%   192   75s
  3948    92    5.00000   30   73    6.00000    5.00000  16.7%   189   80s
  4354    50    5.00000   37   48    6.00000    5.00000  16.7%   192   85s

Cutting planes:
  Gomory: 1
  Lift-and-project: 8
  Cover: 47
  Implied bound: 67
  Clique: 1
  MIR: 78
  Flow cover: 42
  GUB cover: 84
  Inf proof: 1
  Zero half: 30
  RLT: 67
  Relax-and-lift: 32
  BQP: 56

Explored 4531 nodes (894123 simplex iterations) in 88.15 seconds (95.23 work units)
Thread count was 1 (of 16 available processors)

Solution count 10: 6 7 8 ... 17

Optimal solution found (tolerance 1.00e-04)
Best objective 6.000000000000e+00, best bound 6.000000000000e+00, gap 0.0000%

User-callback calls 34746, time in user-callback 0.04 sec

 sepatime0 0 0
6.0Stat(MathOptInterface.OPTIMAL, 6.0, 6.0, 0.0, 0.0, 1.730079, 88.1522068977356, 4531, Main.CFLG.LEFPAD, "", #undef)
